3 
4  52 
5  10 25 40 55 
6  09 23 35 49 
7  05 20 35 50 
8  05 20 35 50 
9  05 20 35 50 
10  05 20 35 50 
11  05 20 35 50 
12  05 20 35 49 
13  04 19 34 49 
14  04 19 34 49 
15  04 19 34 49 
16  04 19 34 49 
17  04 19 34 49 
18  04 19 34 49 
19  04 21 36 51 
20  06 21 35 50 
21  05 20 35 50 
22  05 20 35 
23 
